nK = 1608;
nT = 8;
nI = 21;
L = 35;
TT = 330;
np = 1;
nc = 3;
b = [61, 25, 52, 22, 42, 28, 56, 62, 54, 57, 41, 23, 21, 56, 60, 67, 53, 20, 52, 61, 65];
d = [123, 134, 82, 107, 125, 109, 127, 149, 82, 149, 105, 82, 136, 149, 143, 134, 94, 49, 95, 104, 137];
m = [2.1, 1.9, 1.6, 1.3, 1.2, 1.8, 1.4, 2.5, 1, 1.4, 1.7, 2, 1.6, 1.8, 2.1, 1.9, 1.5, 2.2, 1.5, 1.8, 2.1];
pt = [0.31, 0.3, 0.22, 0.2, 0.3, 0.22, 0.34, 0.34];
st = [14.57, 16.2, 10.34, 8.4, 12, 10.34, 16.32, 14.28];
arc = {<1, 0, 1, 1, 0, 0, 0, [1, 1, 1, 1, 1, 1, 1, 1]>, <2, 1, 2, 1, 0, 0, 0, [1, 1, 1, 1, 1, 1, 1, 1]>, <3, 2, 3, 1, 0, 0, 0, [1, 1, 1, 1, 1, 1, 1, 1]>, <4, 3, 4, 1, 0, 0, 0, [1, 1, 1, 1, 1, 1, 1, 1]>, <5, 4, 5, 1, 0, 0, 0, [1, 1, 1, 1, 1, 1, 1, 1]>, <6, 5, 6, 1, 0, 0, 0, [1, 1, 1, 1, 1, 1, 1, 1]>, <7, 6, 7, 1, 0, 0, 0, [1, 1, 1, 1, 1, 1, 1, 1]>, <8, 7, 8, 1, 0, 0, 0, [1, 1, 1, 1, 1, 1, 1, 1]>, <9, 8, 9, 1, 0, 0, 0, [1, 1, 1, 1, 1, 1, 1, 1]>, <10, 9, 10, 1, 0, 0, 0, [1, 1, 1, 1, 1, 1, 1, 1]>, <11, 10, 11, 1, 0, 0, 0, [1, 1, 1, 1, 1, 1, 1, 1]>, <12, 11, 12, 1, 0, 0, 0, [1, 1, 1, 1, 1, 1, 1, 1]>, <13, 12, 13, 1, 0, 0, 0, [1, 1, 1, 1, 1, 1, 1, 1]>, <14, 13, 14, 1, 0, 0, 0, [1, 1, 1, 1, 1, 1, 1, 1]>, <15, 14, 15, 1, 0, 0, 0, [1, 1, 1, 1, 1, 1, 1, 1]>, <16, 15, 16, 1, 0, 0, 0, [1, 1, 1, 1, 1, 1, 1, 1]>, <17, 16, 17, 1, 0, 0, 0, [1, 1, 1, 1, 1, 1, 1, 1]>, <18, 17, 18, 1, 0, 0, 0, [1, 1, 1, 1, 1, 1, 1, 1]>, <19, 18, 19, 1, 0, 0, 0, [1, 1, 1, 1, 1, 1, 1, 1]>, <20, 19, 20, 1, 0, 0, 0, [1, 1, 1, 1, 1, 1, 1, 1]>, <21, 20, 21, 1, 0, 0, 0, [1, 1, 1, 1, 1, 1, 1, 1]>, <22, 21, 22, 1, 0, 0, 0, [1, 1, 1, 1, 1, 1, 1, 1]>, <23, 22, 23, 1, 0, 0, 0, [1, 1, 1, 1, 1, 1, 1, 1]>, <24, 23, 24, 1, 0, 0, 0, [1, 1, 1, 1, 1, 1, 1, 1]>, <25, 24, 25, 1, 0, 0, 0, [1, 1, 1, 1, 1, 1, 1, 1]>, <26, 25, 26, 1, 0, 0, 0, [1, 1, 1, 1, 1, 1, 1, 1]>, <27, 26, 27, 1, 0, 0, 0, [1, 1, 1, 1, 1, 1, 1, 1]>, <28, 27, 28, 1, 0, 0, 0, [1, 1, 1, 1, 1, 1, 1, 1]>, <29, 28, 29, 1, 0, 0, 0, [1, 1, 1, 1, 1, 1, 1, 1]>, <30, 29, 30, 1, 0, 0, 0, [1, 1, 1, 1, 1, 1, 1, 1]>, <31, 30, 31, 1, 0, 0, 0, [1, 1, 1, 1, 1, 1, 1, 1]>, <32, 31, 32, 1, 0, 0, 0, [1, 1, 1, 1, 1, 1, 1, 1]>, <33, 32, 33, 1, 0, 0, 0, [1, 1, 1, 1, 1, 1, 1, 1]>, <34, 33, 34, 1, 0, 0, 0, [1, 1, 1, 1, 1, 1, 1, 1]>, <35, 34, 35, 1, 0, 0, 0, [1, 1, 1, 1, 1, 1, 1, 1]>, <36, 3, 17, 14, 1, 1, 0, [1, 1, 1, 1, 0, 0, 0, 0]>, <37, 4, 18, 14, 1, 1, 0, [1, 1, 1, 1, 0, 0, 0, 0]>, <38, 5, 19, 14, 1, 1, 0, [1, 1, 1, 1, 0, 0, 0, 0]>, <39, 6, 20, 14, 1, 1, 0, [1, 1, 1, 1, 0, 0, 0, 0]>, <40, 12, 26, 14, 1, 1, 0, [1, 1, 1, 1, 0, 0, 0, 0]>, <41, 13, 27, 14, 1, 1, 0, [1, 1, 1, 1, 0, 0, 0, 0]>, <42, 14, 28, 14, 1, 1, 0, [1, 1, 1, 1, 0, 0, 0, 0]>, <43, 15, 29, 14, 1, 1, 0, [1, 1, 1, 1, 0, 0, 0, 0]>, <44, 17, 31, 14, 1, 1, 0, [1, 1, 1, 1, 0, 0, 0, 0]>, <45, 18, 32, 14, 1, 1, 0, [1, 1, 1, 1, 0, 0, 0, 0]>, <46, 19, 33, 14, 1, 1, 0, [1, 1, 1, 1, 0, 0, 0, 0]>, <47, 20, 34, 14, 1, 1, 0, [1, 1, 1, 1, 0, 0, 0, 0]>, <48, 21, 35, 14, 1, 1, 0, [1, 1, 1, 1, 0, 0, 0, 0]>, <49, 3, 17, 14, 2, 0, 1, [1, 1, 1, 0, 0, 0, 0, 1]>, <50, 4, 18, 14, 2, 0, 1, [1, 1, 1, 0, 0, 0, 0, 1]>, <51, 5, 19, 14, 2, 0, 1, [1, 1, 1, 0, 0, 0, 0, 1]>, <52, 6, 20, 14, 2, 0, 1, [1, 1, 1, 0, 0, 0, 0, 1]>, <53, 12, 26, 14, 2, 0, 1, [1, 1, 1, 0, 0, 0, 0, 1]>, <54, 13, 27, 14, 2, 0, 1, [1, 1, 1, 0, 0, 0, 0, 1]>, <55, 14, 28, 14, 2, 0, 1, [1, 1, 1, 0, 0, 0, 0, 1]>, <56, 15, 29, 14, 2, 0, 1, [1, 1, 1, 0, 0, 0, 0, 1]>, <57, 17, 31, 14, 2, 0, 1, [1, 1, 1, 0, 0, 0, 0, 1]>, <58, 18, 32, 14, 2, 0, 1, [1, 1, 1, 0, 0, 0, 0, 1]>, <59, 19, 33, 14, 2, 0, 1, [1, 1, 1, 0, 0, 0, 0, 1]>, <60, 20, 34, 14, 2, 0, 1, [1, 1, 1, 0, 0, 0, 0, 1]>, <61, 21, 35, 14, 2, 0, 1, [1, 1, 1, 0, 0, 0, 0, 1]>, <62, 4, 17, 13, 3, 0, 1, [0, 0, 1, 1, 1, 1, 0, 0]>, <63, 5, 18, 13, 3, 0, 1, [0, 0, 1, 1, 1, 1, 0, 0]>, <64, 6, 19, 13, 3, 0, 1, [0, 0, 1, 1, 1, 1, 0, 0]>, <65, 13, 26, 13, 3, 0, 1, [0, 0, 1, 1, 1, 1, 0, 0]>, <66, 14, 27, 13, 3, 0, 1, [0, 0, 1, 1, 1, 1, 0, 0]>, <67, 15, 28, 13, 3, 0, 1, [0, 0, 1, 1, 1, 1, 0, 0]>, <68, 18, 31, 13, 3, 0, 1, [0, 0, 1, 1, 1, 1, 0, 0]>, <69, 19, 32, 13, 3, 0, 1, [0, 0, 1, 1, 1, 1, 0, 0]>, <70, 20, 33, 13, 3, 0, 1, [0, 0, 1, 1, 1, 1, 0, 0]>, <71, 21, 34, 13, 3, 0, 1, [0, 0, 1, 1, 1, 1, 0, 0]>, <72, 22, 35, 13, 3, 0, 1, [0, 0, 1, 1, 1, 1, 0, 0]>, <73, 4, 17, 13, 4, 0, 1, [0, 0, 0, 0, 1, 1, 1, 1]>, <74, 5, 18, 13, 4, 0, 1, [0, 0, 0, 0, 1, 1, 1, 1]>, <75, 6, 19, 13, 4, 0, 1, [0, 0, 0, 0, 1, 1, 1, 1]>, <76, 13, 26, 13, 4, 0, 1, [0, 0, 0, 0, 1, 1, 1, 1]>, <77, 14, 27, 13, 4, 0, 1, [0, 0, 0, 0, 1, 1, 1, 1]>, <78, 15, 28, 13, 4, 0, 1, [0, 0, 0, 0, 1, 1, 1, 1]>, <79, 18, 31, 13, 4, 0, 1, [0, 0, 0, 0, 1, 1, 1, 1]>, <80, 19, 32, 13, 4, 0, 1, [0, 0, 0, 0, 1, 1, 1, 1]>, <81, 20, 33, 13, 4, 0, 1, [0, 0, 0, 0, 1, 1, 1, 1]>, <82, 21, 34, 13, 4, 0, 1, [0, 0, 0, 0, 1, 1, 1, 1]>, <83, 22, 35, 13, 4, 0, 1, [0, 0, 0, 0, 1, 1, 1, 1]>, <84, 5, 15, 10, 5, 1, 0, [0, 0, 1, 1, 1, 1, 0, 0]>, <85, 6, 16, 10, 5, 1, 0, [0, 0, 1, 1, 1, 1, 0, 0]>, <86, 14, 24, 10, 5, 1, 0, [0, 0, 1, 1, 1, 1, 0, 0]>, <87, 15, 25, 10, 5, 1, 0, [0, 0, 1, 1, 1, 1, 0, 0]>, <88, 21, 31, 10, 5, 1, 0, [0, 0, 1, 1, 1, 1, 0, 0]>, <89, 22, 32, 10, 5, 1, 0, [0, 0, 1, 1, 1, 1, 0, 0]>, <90, 23, 33, 10, 5, 1, 0, [0, 0, 1, 1, 1, 1, 0, 0]>, <91, 24, 34, 10, 5, 1, 0, [0, 0, 1, 1, 1, 1, 0, 0]>, <92, 5, 15, 10, 6, 0, 0, [1, 1, 1, 1, 0, 0, 0, 0]>, <93, 6, 16, 10, 6, 0, 0, [1, 1, 1, 1, 0, 0, 0, 0]>, <94, 14, 24, 10, 6, 0, 0, [1, 1, 1, 1, 0, 0, 0, 0]>, <95, 15, 25, 10, 6, 0, 0, [1, 1, 1, 1, 0, 0, 0, 0]>, <96, 21, 31, 10, 6, 0, 0, [1, 1, 1, 1, 0, 0, 0, 0]>, <97, 22, 32, 10, 6, 0, 0, [1, 1, 1, 1, 0, 0, 0, 0]>, <98, 23, 33, 10, 6, 0, 0, [1, 1, 1, 1, 0, 0, 0, 0]>, <99, 24, 34, 10, 6, 0, 0, [1, 1, 1, 1, 0, 0, 0, 0]>, <100, 5, 16, 11, 7, 0, 1, [0, 0, 1, 1, 1, 1, 0, 0]>, <101, 6, 17, 11, 7, 0, 1, [0, 0, 1, 1, 1, 1, 0, 0]>, <102, 14, 25, 11, 7, 0, 1, [0, 0, 1, 1, 1, 1, 0, 0]>, <103, 15, 26, 11, 7, 0, 1, [0, 0, 1, 1, 1, 1, 0, 0]>, <104, 20, 31, 11, 7, 0, 1, [0, 0, 1, 1, 1, 1, 0, 0]>, <105, 21, 32, 11, 7, 0, 1, [0, 0, 1, 1, 1, 1, 0, 0]>, <106, 22, 33, 11, 7, 0, 1, [0, 0, 1, 1, 1, 1, 0, 0]>, <107, 23, 34, 11, 7, 0, 1, [0, 0, 1, 1, 1, 1, 0, 0]>, <108, 24, 35, 11, 7, 0, 1, [0, 0, 1, 1, 1, 1, 0, 0]>, <109, 5, 14, 9, 8, 0, 1, [1, 1, 0, 0, 0, 0, 1, 1]>, <110, 6, 15, 9, 8, 0, 1, [1, 1, 0, 0, 0, 0, 1, 1]>, <111, 14, 23, 9, 8, 0, 1, [1, 1, 0, 0, 0, 0, 1, 1]>, <112, 15, 24, 9, 8, 0, 1, [1, 1, 0, 0, 0, 0, 1, 1]>, <113, 22, 31, 9, 8, 0, 1, [1, 1, 0, 0, 0, 0, 1, 1]>, <114, 23, 32, 9, 8, 0, 1, [1, 1, 0, 0, 0, 0, 1, 1]>, <115, 24, 33, 9, 8, 0, 1, [1, 1, 0, 0, 0, 0, 1, 1]>, <116, 5, 14, 9, 9, 0, 1, [0, 0, 1, 1, 1, 1, 0, 0]>, <117, 6, 15, 9, 9, 0, 1, [0, 0, 1, 1, 1, 1, 0, 0]>, <118, 14, 23, 9, 9, 0, 1, [0, 0, 1, 1, 1, 1, 0, 0]>, <119, 15, 24, 9, 9, 0, 1, [0, 0, 1, 1, 1, 1, 0, 0]>, <120, 22, 31, 9, 9, 0, 1, [0, 0, 1, 1, 1, 1, 0, 0]>, <121, 23, 32, 9, 9, 0, 1, [0, 0, 1, 1, 1, 1, 0, 0]>, <122, 24, 33, 9, 9, 0, 1, [0, 0, 1, 1, 1, 1, 0, 0]>, <123, 5, 14, 9, 10, 0, 0, [0, 0, 1, 1, 1, 1, 0, 0]>, <124, 6, 15, 9, 10, 0, 0, [0, 0, 1, 1, 1, 1, 0, 0]>, <125, 14, 23, 9, 10, 0, 0, [0, 0, 1, 1, 1, 1, 0, 0]>, <126, 15, 24, 9, 10, 0, 0, [0, 0, 1, 1, 1, 1, 0, 0]>, <127, 22, 31, 9, 10, 0, 0, [0, 0, 1, 1, 1, 1, 0, 0]>, <128, 23, 32, 9, 10, 0, 0, [0, 0, 1, 1, 1, 1, 0, 0]>, <129, 24, 33, 9, 10, 0, 0, [0, 0, 1, 1, 1, 1, 0, 0]>, <130, 2, 17, 15, 11, 0, 0, [0, 0, 0, 0, 1, 1, 1, 1]>, <131, 3, 18, 15, 11, 0, 0, [0, 0, 0, 0, 1, 1, 1, 1]>, <132, 4, 19, 15, 11, 0, 0, [0, 0, 0, 0, 1, 1, 1, 1]>, <133, 5, 20, 15, 11, 0, 0, [0, 0, 0, 0, 1, 1, 1, 1]>, <134, 6, 21, 15, 11, 0, 0, [0, 0, 0, 0, 1, 1, 1, 1]>, <135, 11, 26, 15, 11, 0, 0, [0, 0, 0, 0, 1, 1, 1, 1]>, <136, 12, 27, 15, 11, 0, 0, [0, 0, 0, 0, 1, 1, 1, 1]>, <137, 13, 28, 15, 11, 0, 0, [0, 0, 0, 0, 1, 1, 1, 1]>, <138, 14, 29, 15, 11, 0, 0, [0, 0, 0, 0, 1, 1, 1, 1]>, <139, 15, 30, 15, 11, 0, 0, [0, 0, 0, 0, 1, 1, 1, 1]>, <140, 16, 31, 15, 11, 0, 0, [0, 0, 0, 0, 1, 1, 1, 1]>, <141, 17, 32, 15, 11, 0, 0, [0, 0, 0, 0, 1, 1, 1, 1]>, <142, 18, 33, 15, 11, 0, 0, [0, 0, 0, 0, 1, 1, 1, 1]>, <143, 19, 34, 15, 11, 0, 0, [0, 0, 0, 0, 1, 1, 1, 1]>, <144, 20, 35, 15, 11, 0, 0, [0, 0, 0, 0, 1, 1, 1, 1]>, <145, 3, 17, 14, 12, 0, 0, [0, 0, 1, 1, 1, 1, 0, 0]>, <146, 4, 18, 14, 12, 0, 0, [0, 0, 1, 1, 1, 1, 0, 0]>, <147, 5, 19, 14, 12, 0, 0, [0, 0, 1, 1, 1, 1, 0, 0]>, <148, 6, 20, 14, 12, 0, 0, [0, 0, 1, 1, 1, 1, 0, 0]>, <149, 12, 26, 14, 12, 0, 0, [0, 0, 1, 1, 1, 1, 0, 0]>, <150, 13, 27, 14, 12, 0, 0, [0, 0, 1, 1, 1, 1, 0, 0]>, <151, 14, 28, 14, 12, 0, 0, [0, 0, 1, 1, 1, 1, 0, 0]>, <152, 15, 29, 14, 12, 0, 0, [0, 0, 1, 1, 1, 1, 0, 0]>, <153, 17, 31, 14, 12, 0, 0, [0, 0, 1, 1, 1, 1, 0, 0]>, <154, 18, 32, 14, 12, 0, 0, [0, 0, 1, 1, 1, 1, 0, 0]>, <155, 19, 33, 14, 12, 0, 0, [0, 0, 1, 1, 1, 1, 0, 0]>, <156, 20, 34, 14, 12, 0, 0, [0, 0, 1, 1, 1, 1, 0, 0]>, <157, 21, 35, 14, 12, 0, 0, [0, 0, 1, 1, 1, 1, 0, 0]>, <158, 4, 17, 13, 13, 0, 0, [0, 0, 0, 0, 1, 1, 1, 1]>, <159, 5, 18, 13, 13, 0, 0, [0, 0, 0, 0, 1, 1, 1, 1]>, <160, 6, 19, 13, 13, 0, 0, [0, 0, 0, 0, 1, 1, 1, 1]>, <161, 13, 26, 13, 13, 0, 0, [0, 0, 0, 0, 1, 1, 1, 1]>, <162, 14, 27, 13, 13, 0, 0, [0, 0, 0, 0, 1, 1, 1, 1]>, <163, 15, 28, 13, 13, 0, 0, [0, 0, 0, 0, 1, 1, 1, 1]>, <164, 18, 31, 13, 13, 0, 0, [0, 0, 0, 0, 1, 1, 1, 1]>, <165, 19, 32, 13, 13, 0, 0, [0, 0, 0, 0, 1, 1, 1, 1]>, <166, 20, 33, 13, 13, 0, 0, [0, 0, 0, 0, 1, 1, 1, 1]>, <167, 21, 34, 13, 13, 0, 0, [0, 0, 0, 0, 1, 1, 1, 1]>, <168, 22, 35, 13, 13, 0, 0, [0, 0, 0, 0, 1, 1, 1, 1]>, <169, 5, 17, 12, 14, 1, 0, [0, 0, 1, 1, 1, 1, 0, 0]>, <170, 6, 18, 12, 14, 1, 0, [0, 0, 1, 1, 1, 1, 0, 0]>, <171, 14, 26, 12, 14, 1, 0, [0, 0, 1, 1, 1, 1, 0, 0]>, <172, 15, 27, 12, 14, 1, 0, [0, 0, 1, 1, 1, 1, 0, 0]>, <173, 19, 31, 12, 14, 1, 0, [0, 0, 1, 1, 1, 1, 0, 0]>, <174, 20, 32, 12, 14, 1, 0, [0, 0, 1, 1, 1, 1, 0, 0]>, <175, 21, 33, 12, 14, 1, 0, [0, 0, 1, 1, 1, 1, 0, 0]>, <176, 22, 34, 12, 14, 1, 0, [0, 0, 1, 1, 1, 1, 0, 0]>, <177, 23, 35, 12, 14, 1, 0, [0, 0, 1, 1, 1, 1, 0, 0]>, <178, 5, 16, 11, 15, 0, 1, [0, 0, 0, 1, 1, 1, 1, 0]>, <179, 6, 17, 11, 15, 0, 1, [0, 0, 0, 1, 1, 1, 1, 0]>, <180, 14, 25, 11, 15, 0, 1, [0, 0, 0, 1, 1, 1, 1, 0]>, <181, 15, 26, 11, 15, 0, 1, [0, 0, 0, 1, 1, 1, 1, 0]>, <182, 20, 31, 11, 15, 0, 1, [0, 0, 0, 1, 1, 1, 1, 0]>, <183, 21, 32, 11, 15, 0, 1, [0, 0, 0, 1, 1, 1, 1, 0]>, <184, 22, 33, 11, 15, 0, 1, [0, 0, 0, 1, 1, 1, 1, 0]>, <185, 23, 34, 11, 15, 0, 1, [0, 0, 0, 1, 1, 1, 1, 0]>, <186, 24, 35, 11, 15, 0, 1, [0, 0, 0, 1, 1, 1, 1, 0]>, <187, 5, 17, 12, 16, 0, 0, [0, 0, 1, 1, 1, 1, 0, 0]>, <188, 6, 18, 12, 16, 0, 0, [0, 0, 1, 1, 1, 1, 0, 0]>, <189, 14, 26, 12, 16, 0, 0, [0, 0, 1, 1, 1, 1, 0, 0]>, <190, 15, 27, 12, 16, 0, 0, [0, 0, 1, 1, 1, 1, 0, 0]>, <191, 19, 31, 12, 16, 0, 0, [0, 0, 1, 1, 1, 1, 0, 0]>, <192, 20, 32, 12, 16, 0, 0, [0, 0, 1, 1, 1, 1, 0, 0]>, <193, 21, 33, 12, 16, 0, 0, [0, 0, 1, 1, 1, 1, 0, 0]>, <194, 22, 34, 12, 16, 0, 0, [0, 0, 1, 1, 1, 1, 0, 0]>, <195, 23, 35, 12, 16, 0, 0, [0, 0, 1, 1, 1, 1, 0, 0]>, <196, 3, 17, 14, 17, 0, 0, [1, 0, 0, 0, 0, 1, 1, 1]>, <197, 4, 18, 14, 17, 0, 0, [1, 0, 0, 0, 0, 1, 1, 1]>, <198, 5, 19, 14, 17, 0, 0, [1, 0, 0, 0, 0, 1, 1, 1]>, <199, 6, 20, 14, 17, 0, 0, [1, 0, 0, 0, 0, 1, 1, 1]>, <200, 12, 26, 14, 17, 0, 0, [1, 0, 0, 0, 0, 1, 1, 1]>, <201, 13, 27, 14, 17, 0, 0, [1, 0, 0, 0, 0, 1, 1, 1]>, <202, 14, 28, 14, 17, 0, 0, [1, 0, 0, 0, 0, 1, 1, 1]>, <203, 15, 29, 14, 17, 0, 0, [1, 0, 0, 0, 0, 1, 1, 1]>, <204, 17, 31, 14, 17, 0, 0, [1, 0, 0, 0, 0, 1, 1, 1]>, <205, 18, 32, 14, 17, 0, 0, [1, 0, 0, 0, 0, 1, 1, 1]>, <206, 19, 33, 14, 17, 0, 0, [1, 0, 0, 0, 0, 1, 1, 1]>, <207, 20, 34, 14, 17, 0, 0, [1, 0, 0, 0, 0, 1, 1, 1]>, <208, 21, 35, 14, 17, 0, 0, [1, 0, 0, 0, 0, 1, 1, 1]>, <209, 4, 17, 13, 18, 0, 1, [1, 1, 0, 0, 0, 0, 1, 1]>, <210, 5, 18, 13, 18, 0, 1, [1, 1, 0, 0, 0, 0, 1, 1]>, <211, 6, 19, 13, 18, 0, 1, [1, 1, 0, 0, 0, 0, 1, 1]>, <212, 13, 26, 13, 18, 0, 1, [1, 1, 0, 0, 0, 0, 1, 1]>, <213, 14, 27, 13, 18, 0, 1, [1, 1, 0, 0, 0, 0, 1, 1]>, <214, 15, 28, 13, 18, 0, 1, [1, 1, 0, 0, 0, 0, 1, 1]>, <215, 18, 31, 13, 18, 0, 1, [1, 1, 0, 0, 0, 0, 1, 1]>, <216, 19, 32, 13, 18, 0, 1, [1, 1, 0, 0, 0, 0, 1, 1]>, <217, 20, 33, 13, 18, 0, 1, [1, 1, 0, 0, 0, 0, 1, 1]>, <218, 21, 34, 13, 18, 0, 1, [1, 1, 0, 0, 0, 0, 1, 1]>, <219, 22, 35, 13, 18, 0, 1, [1, 1, 0, 0, 0, 0, 1, 1]>, <220, 4, 17, 13, 19, 0, 1, [0, 1, 1, 1, 1, 0, 0, 0]>, <221, 5, 18, 13, 19, 0, 1, [0, 1, 1, 1, 1, 0, 0, 0]>, <222, 6, 19, 13, 19, 0, 1, [0, 1, 1, 1, 1, 0, 0, 0]>, <223, 13, 26, 13, 19, 0, 1, [0, 1, 1, 1, 1, 0, 0, 0]>, <224, 14, 27, 13, 19, 0, 1, [0, 1, 1, 1, 1, 0, 0, 0]>, <225, 15, 28, 13, 19, 0, 1, [0, 1, 1, 1, 1, 0, 0, 0]>, <226, 18, 31, 13, 19, 0, 1, [0, 1, 1, 1, 1, 0, 0, 0]>, <227, 19, 32, 13, 19, 0, 1, [0, 1, 1, 1, 1, 0, 0, 0]>, <228, 20, 33, 13, 19, 0, 1, [0, 1, 1, 1, 1, 0, 0, 0]>, <229, 21, 34, 13, 19, 0, 1, [0, 1, 1, 1, 1, 0, 0, 0]>, <230, 22, 35, 13, 19, 0, 1, [0, 1, 1, 1, 1, 0, 0, 0]>, <231, 5, 14, 9, 20, 0, 0, [1, 1, 1, 1, 0, 0, 0, 0]>, <232, 6, 15, 9, 20, 0, 0, [1, 1, 1, 1, 0, 0, 0, 0]>, <233, 14, 23, 9, 20, 0, 0, [1, 1, 1, 1, 0, 0, 0, 0]>, <234, 15, 24, 9, 20, 0, 0, [1, 1, 1, 1, 0, 0, 0, 0]>, <235, 22, 31, 9, 20, 0, 0, [1, 1, 1, 1, 0, 0, 0, 0]>, <236, 23, 32, 9, 20, 0, 0, [1, 1, 1, 1, 0, 0, 0, 0]>, <237, 24, 33, 9, 20, 0, 0, [1, 1, 1, 1, 0, 0, 0, 0]>, <238, 4, 17, 13, 21, 0, 0, [1, 1, 1, 1, 0, 0, 0, 0]>, <239, 5, 18, 13, 21, 0, 0, [1, 1, 1, 1, 0, 0, 0, 0]>, <240, 6, 19, 13, 21, 0, 0, [1, 1, 1, 1, 0, 0, 0, 0]>, <241, 13, 26, 13, 21, 0, 0, [1, 1, 1, 1, 0, 0, 0, 0]>, <242, 14, 27, 13, 21, 0, 0, [1, 1, 1, 1, 0, 0, 0, 0]>, <243, 15, 28, 13, 21, 0, 0, [1, 1, 1, 1, 0, 0, 0, 0]>, <244, 18, 31, 13, 21, 0, 0, [1, 1, 1, 1, 0, 0, 0, 0]>, <245, 19, 32, 13, 21, 0, 0, [1, 1, 1, 1, 0, 0, 0, 0]>, <246, 20, 33, 13, 21, 0, 0, [1, 1, 1, 1, 0, 0, 0, 0]>, <247, 21, 34, 13, 21, 0, 0, [1, 1, 1, 1, 0, 0, 0, 0]>, <248, 22, 35, 13, 21, 0, 0, [1, 1, 1, 1, 0, 0, 0, 0]>};
